DIMACS2
40 157 88 141 46 132 29 68 131 47 123 17 120 73 56 7 147 89 128 155 103 5 104 71 0 77 59 114 19 87 102 139 62 94 116 144 83 2 98 93 55
p edge 160 341
e 0 122 14.0
e 0 100 34.0
e 1 44 1.0
e 1 0 30.0
e 2 16 45.0
e 2 7 49.0
e 2 68 11.0
e 2 89 39.0
e 3 60 1.0
e 3 57 1.0
e 4 24 1.0
e 4 88 38.0
e 5 120 29.0
e 5 29 18.0
e 5 114 10.0
e 5 89 32.0
e 6 117 1.0
e 6 108 1.0
e 7 62 37.0
e 7 16 5.0
e 7 46 5.0
e 7 47 17.0
e 8 1 1.0
e 8 33 1.0
e 9 156 2.0
e 9 154 2.0
e 10 145 1.0
e 10 141 13.0
e 11 149 1.0
e 11 24 2.0
e 12 15 1.0
e 12 24 1.0
e 13 156 5.0
e 13 131 11.0
e 14 45 1.0
e 14 29 17.0
e 15 61 1.0
e 15 141 8.0
e 16 47 15.0
e 16 95 3.0
e 17 158 36.0
e 17 61 23.0
e 18 123 29.0
e 18 106 1.0
e 19 82 12.0
e 19 58 3.0
e 20 103 36.0
e 20 156 1.0
e 21 64 1.0
e 21 48 1.0
e 22 117 1.0
e 22 121 1.0
e 23 141 21.0
e 23 81 1.0
e 24 9 1.0
e 24 16 1.0
e 25 137 1.0
e 25 1 1.0
e 26 110 3.0
e 26 13 4.0
e 27 81 1.0
e 27 150 2.0
e 28 55 5.0
e 28 15 1.0
e 29 40 4.0
e 29 104 36.0
e 30 114 49.0
e 30 64 1.0
e 31 108 2.0
e 31 21 2.0
e 32 31 1.0
e 32 33 1.0
e 33 144 29.0
e 33 130 2.0
e 34 21 1.0
e 34 122 1.0
e 35 41 1.0
e 35 4 1.0
e 36 0 2.0
e 36 122 1.0
e 37 74 1.0
e 37 59 38.0
e 38 142 1.0
e 38 85 1.0
e 39 45 1.0
e 39 125 1.0
e 40 105 1.0
e 40 134 1.0
e 41 158 1.0
e 41 49 1.0
e 42 119 1.0
e 42 148 1.0
e 43 114 3.0
e 43 119 1.0
e 44 26 1.0
e 44 89 41.0
e 45 27 1.0
e 45 117 1.0
e 46 67 8.0
e 46 57 27.0
e 46 68 4.0
e 47 37 48.0
e 47 0 40.0
e 48 41 1.0
e 48 130 1.0
e 49 40 1.0
e 49 3 2.0
e 50 158 1.0
e 50 70 2.0
e 51 18 1.0
e 51 48 1.0
e 52 5 17.0
e 52 71 24.0
e 53 113 2.0
e 53 152 2.0
e 54 153 1.0
e 54 43 1.0
e 55 124 29.0
e 55 72 19.0
e 56 36 29.0
e 56 125 16.0
e 56 59 40.0
e 56 83 41.0
e 57 51 1.0
e 58 83 13.0
e 58 11 1.0
e 59 105 10.0
e 59 130 15.0
e 59 71 32.0
e 60 88 20.0
e 60 134 1.0
e 61 93 28.0
e 61 71 27.0
e 62 129 1.0
e 62 15 13.0
e 63 151 1.0
e 63 42 1.0
e 64 82 1.0
e 64 14 1.0
e 65 61 1.0
e 65 53 1.0
e 66 120 27.0
e 66 56 6.0
e 67 94 36.0
e 68 84 1.0
e 68 57 45.0
e 69 44 1.0
e 69 31 2.0
e 70 103 16.0
e 70 45 1.0
e 71 127 36.0
e 71 4 25.0
e 72 120 10.0
e 72 58 1.0
e 73 55 12.0
e 73 10 43.0
e 73 77 31.0
e 73 87 42.0
e 74 19 10.0
e 74 118 2.0
e 75 80 1.0
e 75 105 1.0
e 76 57 1.0
e 76 6 1.0
e 77 106 32.0
e 77 29 20.0
e 78 155 26.0
e 78 154 1.0
e 79 25 1.0
e 79 155 13.0
e 80 25 1.0
e 80 86 1.0
e 81 118 1.0
e 81 77 22.0
e 82 100 1.0
e 82 68 36.0
e 83 106 42.0
e 83 94 46.0
e 84 76 2.0
e 84 121 2.0
e 85 151 1.0
e 85 23 1.0
e 86 6 1.0
e 86 151 1.0
e 87 153 13.0
e 87 111 24.0
e 88 32 46.0
e 88 65 37.0
e 89 78 9.0
e 89 73 18.0
e 90 38 1.0
e 90 23 1.0
e 91 8 1.0
e 91 120 48.0
e 92 101 2.0
e 92 146 1.0
e 93 48 22.0
e 93 23 34.0
e 93 94 42.0
e 94 139 36.0
e 94 10 35.0
e 95 19 34.0
e 95 52 1.0
e 96 148 1.0
e 96 19 23.0
e 97 11 2.0
e 97 62 21.0
e 98 158 7.0
e 98 66 2.0
e 98 116 34.0
e 98 102 14.0
e 98 104 45.0
e 99 118 1.0
e 99 62 1.0
e 100 123 17.0
e 100 137 1.0
e 101 46 7.0
e 101 156 2.0
e 102 157 30.0
e 102 23 17.0
e 102 116 1.0
e 103 49 19.0
e 103 79 31.0
e 104 58 17.0
e 104 103 44.0
e 105 20 1.0
e 105 55 21.0
e 106 1 1.0
e 106 134 1.0
e 107 120 34.0
e 107 49 1.0
e 108 50 2.0
e 108 22 1.0
e 109 83 9.0
e 109 80 1.0
e 110 17 14.0
e 110 88 6.0
e 111 34 1.0
e 111 60 1.0
e 112 149 1.0
e 112 9 2.0
e 113 84 2.0
e 113 63 1.0
e 114 109 25.0
e 114 77 34.0
e 115 126 1.0
e 115 17 19.0
e 116 87 4.0
e 116 28 29.0
e 116 123 43.0
e 117 70 1.0
e 117 95 2.0
e 118 140 1.0
e 119 125 2.0
e 119 30 1.0
e 120 155 26.0
e 120 136 2.0
e 121 41 2.0
e 121 48 1.0
e 122 17 21.0
e 122 132 2.0
e 123 41 29.0
e 123 85 45.0
e 124 11 1.0
e 124 4 1.0
e 125 102 43.0
e 125 149 1.0
e 126 137 2.0
e 126 47 29.0
e 127 112 1.0
e 127 27 1.0
e 128 119 41.0
e 128 100 34.0
e 128 131 39.0
e 128 132 14.0
e 128 139 19.0
e 129 52 1.0
e 129 0 40.0
e 130 108 1.0
e 130 153 1.0
e 131 26 20.0
e 131 133 11.0
e 131 132 22.0
e 132 135 32.0
e 132 126 45.0
e 133 66 1.0
e 133 154 2.0
e 134 50 1.0
e 134 105 1.0
e 135 149 2.0
e 135 91 3.0
e 136 1 1.0
e 136 92 2.0
e 137 87 27.0
e 137 118 3.0
e 138 72 1.0
e 138 40 3.0
e 139 125 21.0
e 139 143 28.0
e 139 144 38.0
e 140 158 1.0
e 140 122 1.0
e 141 37 46.0
e 141 42 15.0
e 142 15 1.0
e 142 148 1.0
e 143 97 1.0
e 143 21 2.0
e 144 11 29.0
e 144 120 6.0
e 144 147 6.0
e 145 37 3.0
e 145 70 1.0
e 146 129 1.0
e 146 130 2.0
e 147 4 43.0
e 147 85 34.0
e 148 147 11.0
e 148 93 27.0
e 149 41 2.0
e 149 129 1.0
e 150 2 40.0
e 150 122 1.0
e 151 40 1.0
e 151 60 1.0
e 152 34 1.0
e 152 1 1.0
e 153 105 1.0
e 153 23 1.0
e 154 41 1.0
e 154 147 21.0
e 155 124 6.0
e 155 145 34.0
e 156 60 1.0
e 156 27 1.0
e 157 1 20.0
e 157 152 32.0
e 158 142 1.0
e 158 90 1.0
e 159 104 7.0
e 159 36 1.0
